\* McOptimization_Problem *\
Minimize
Calories: 720 MenuItems_Bacon_Clubhouse_Burger + 440 MenuItems_Bacon_McDouble
 + 250 MenuItems_Baked_Apple_Pie + 530 MenuItems_Big_Mac
 + 290 MenuItems_Cheeseburger + 160 MenuItems_Chocolate_Chip_Cookie
 + 430 MenuItems_Daily_Double + 430 MenuItems_Double_Cheeseburger
 + 750 MenuItems_Double_Quarter_Pounder_with_Cheese + 240 MenuItems_Hamburger
 + 340 MenuItems_Hot_Caramel_Sundae + 330 MenuItems_Hot_Fudge_Sundae
 + 430 MenuItems_Jalapeño_Double + 45 MenuItems_Kids_Ice_Cream_Cone
 + 380 MenuItems_McDouble + 500 MenuItems_McRib
 + 150 MenuItems_Oatmeal_Raisin_Cookie
 + 140 MenuItems_Premium_Bacon_Ranch_Salad_(without_Chicken)
 + 380 MenuItems_Premium_Bacon_Ranch_Salad_with_Crispy_Chicken
 + 220 MenuItems_Premium_Bacon_Ranch_Salad_with_Grilled_Chicken
 + 140 MenuItems_Premium_Southwest_Salad_(without_Chicken)
 + 450 MenuItems_Premium_Southwest_Salad_with_Crispy_Chicken
 + 290 MenuItems_Premium_Southwest_Salad_with_Grilled_Chicken
 + 540 MenuItems_Quarter_Pounder_Deluxe
 + 600 MenuItems_Quarter_Pounder_with_Bacon_&_Cheese
 + 610 MenuItems_Quarter_Pounder_with_Bacon_Habanero_Ranch
 + 520 MenuItems_Quarter_Pounder_with_Cheese + 280 MenuItems_Strawberry_Sundae
Subject To
Carbohydrates_lower: 51 MenuItems_Bacon_Clubhouse_Burger
 + 35 MenuItems_Bacon_McDouble + 32 MenuItems_Baked_Apple_Pie
 + 47 MenuItems_Big_Mac + 33 MenuItems_Cheeseburger
 + 21 MenuItems_Chocolate_Chip_Cookie + 34 MenuItems_Daily_Double
 + 35 MenuItems_Double_Cheeseburger
 + 42 MenuItems_Double_Quarter_Pounder_with_Cheese + 32 MenuItems_Hamburger
 + 60 MenuItems_Hot_Caramel_Sundae + 53 MenuItems_Hot_Fudge_Sundae
 + 35 MenuItems_Jalapeño_Double + 7 MenuItems_Kids_Ice_Cream_Cone
 + 34 MenuItems_McDouble + 44 MenuItems_McRib
 + 22 MenuItems_Oatmeal_Raisin_Cookie
 + 10 MenuItems_Premium_Bacon_Ranch_Salad_(without_Chicken)
 + 22 MenuItems_Premium_Bacon_Ranch_Salad_with_Crispy_Chicken
 + 8 MenuItems_Premium_Bacon_Ranch_Salad_with_Grilled_Chicken
 + 20 MenuItems_Premium_Southwest_Salad_(without_Chicken)
 + 42 MenuItems_Premium_Southwest_Salad_with_Crispy_Chicken
 + 28 MenuItems_Premium_Southwest_Salad_with_Grilled_Chicken
 + 45 MenuItems_Quarter_Pounder_Deluxe
 + 48 MenuItems_Quarter_Pounder_with_Bacon_&_Cheese
 + 46 MenuItems_Quarter_Pounder_with_Bacon_Habanero_Ranch
 + 41 MenuItems_Quarter_Pounder_with_Cheese + 49 MenuItems_Strawberry_Sundae
 >= 247
Fat: 40 MenuItems_Bacon_Clubhouse_Burger + 22 MenuItems_Bacon_McDouble
 + 13 MenuItems_Baked_Apple_Pie + 27 MenuItems_Big_Mac
 + 11 MenuItems_Cheeseburger + 8 MenuItems_Chocolate_Chip_Cookie
 + 22 MenuItems_Daily_Double + 21 MenuItems_Double_Cheeseburger
 + 43 MenuItems_Double_Quarter_Pounder_with_Cheese + 8 MenuItems_Hamburger
 + 8 MenuItems_Hot_Caramel_Sundae + 9 MenuItems_Hot_Fudge_Sundae
 + 23 MenuItems_Jalapeño_Double + 1.5 MenuItems_Kids_Ice_Cream_Cone
 + 17 MenuItems_McDouble + 26 MenuItems_McRib
 + 6 MenuItems_Oatmeal_Raisin_Cookie
 + 7 MenuItems_Premium_Bacon_Ranch_Salad_(without_Chicken)
 + 21 MenuItems_Premium_Bacon_Ranch_Salad_with_Crispy_Chicken
 + 8 MenuItems_Premium_Bacon_Ranch_Salad_with_Grilled_Chicken
 + 4.5 MenuItems_Premium_Southwest_Salad_(without_Chicken)
 + 22 MenuItems_Premium_Southwest_Salad_with_Crispy_Chicken
 + 8 MenuItems_Premium_Southwest_Salad_with_Grilled_Chicken
 + 27 MenuItems_Quarter_Pounder_Deluxe
 + 29 MenuItems_Quarter_Pounder_with_Bacon_&_Cheese
 + 31 MenuItems_Quarter_Pounder_with_Bacon_Habanero_Ranch
 + 26 MenuItems_Quarter_Pounder_with_Cheese + 6 MenuItems_Strawberry_Sundae
 <= 70
Protein_lower: 39 MenuItems_Bacon_Clubhouse_Burger
 + 27 MenuItems_Bacon_McDouble + 2 MenuItems_Baked_Apple_Pie
 + 24 MenuItems_Big_Mac + 15 MenuItems_Cheeseburger
 + 2 MenuItems_Chocolate_Chip_Cookie + 22 MenuItems_Daily_Double
 + 24 MenuItems_Double_Cheeseburger
 + 48 MenuItems_Double_Quarter_Pounder_with_Cheese + 12 MenuItems_Hamburger
 + 7 MenuItems_Hot_Caramel_Sundae + 8 MenuItems_Hot_Fudge_Sundae
 + 22 MenuItems_Jalapeño_Double + MenuItems_Kids_Ice_Cream_Cone
 + 22 MenuItems_McDouble + 22 MenuItems_McRib
 + 2 MenuItems_Oatmeal_Raisin_Cookie
 + 9 MenuItems_Premium_Bacon_Ranch_Salad_(without_Chicken)
 + 25 MenuItems_Premium_Bacon_Ranch_Salad_with_Crispy_Chicken
 + 29 MenuItems_Premium_Bacon_Ranch_Salad_with_Grilled_Chicken
 + 6 MenuItems_Premium_Southwest_Salad_(without_Chicken)
 + 23 MenuItems_Premium_Southwest_Salad_with_Crispy_Chicken
 + 27 MenuItems_Premium_Southwest_Salad_with_Grilled_Chicken
 + 29 MenuItems_Quarter_Pounder_Deluxe
 + 37 MenuItems_Quarter_Pounder_with_Bacon_&_Cheese
 + 37 MenuItems_Quarter_Pounder_with_Bacon_Habanero_Ranch
 + 30 MenuItems_Quarter_Pounder_with_Cheese + 6 MenuItems_Strawberry_Sundae
 >= 23
Protein_upper: 39 MenuItems_Bacon_Clubhouse_Burger
 + 27 MenuItems_Bacon_McDouble + 2 MenuItems_Baked_Apple_Pie
 + 24 MenuItems_Big_Mac + 15 MenuItems_Cheeseburger
 + 2 MenuItems_Chocolate_Chip_Cookie + 22 MenuItems_Daily_Double
 + 24 MenuItems_Double_Cheeseburger
 + 48 MenuItems_Double_Quarter_Pounder_with_Cheese + 12 MenuItems_Hamburger
 + 7 MenuItems_Hot_Caramel_Sundae + 8 MenuItems_Hot_Fudge_Sundae
 + 22 MenuItems_Jalapeño_Double + MenuItems_Kids_Ice_Cream_Cone
 + 22 MenuItems_McDouble + 22 MenuItems_McRib
 + 2 MenuItems_Oatmeal_Raisin_Cookie
 + 9 MenuItems_Premium_Bacon_Ranch_Salad_(without_Chicken)
 + 25 MenuItems_Premium_Bacon_Ranch_Salad_with_Crispy_Chicken
 + 29 MenuItems_Premium_Bacon_Ranch_Salad_with_Grilled_Chicken
 + 6 MenuItems_Premium_Southwest_Salad_(without_Chicken)
 + 23 MenuItems_Premium_Southwest_Salad_with_Crispy_Chicken
 + 27 MenuItems_Premium_Southwest_Salad_with_Grilled_Chicken
 + 29 MenuItems_Quarter_Pounder_Deluxe
 + 37 MenuItems_Quarter_Pounder_with_Bacon_&_Cheese
 + 37 MenuItems_Quarter_Pounder_with_Bacon_Habanero_Ranch
 + 30 MenuItems_Quarter_Pounder_with_Cheese + 6 MenuItems_Strawberry_Sundae
 <= 43
Sodium: 1470 MenuItems_Bacon_Clubhouse_Burger + 1110 MenuItems_Bacon_McDouble
 + 170 MenuItems_Baked_Apple_Pie + 960 MenuItems_Big_Mac
 + 680 MenuItems_Cheeseburger + 90 MenuItems_Chocolate_Chip_Cookie
 + 760 MenuItems_Daily_Double + 1040 MenuItems_Double_Cheeseburger
 + 1280 MenuItems_Double_Quarter_Pounder_with_Cheese + 480 MenuItems_Hamburger
 + 150 MenuItems_Hot_Caramel_Sundae + 170 MenuItems_Hot_Fudge_Sundae
 + 1030 MenuItems_Jalapeño_Double + 20 MenuItems_Kids_Ice_Cream_Cone
 + 840 MenuItems_McDouble + 980 MenuItems_McRib
 + 135 MenuItems_Oatmeal_Raisin_Cookie
 + 300 MenuItems_Premium_Bacon_Ranch_Salad_(without_Chicken)
 + 860 MenuItems_Premium_Bacon_Ranch_Salad_with_Crispy_Chicken
 + 690 MenuItems_Premium_Bacon_Ranch_Salad_with_Grilled_Chicken
 + 150 MenuItems_Premium_Southwest_Salad_(without_Chicken)
 + 850 MenuItems_Premium_Southwest_Salad_with_Crispy_Chicken
 + 680 MenuItems_Premium_Southwest_Salad_with_Grilled_Chicken
 + 960 MenuItems_Quarter_Pounder_Deluxe
 + 1440 MenuItems_Quarter_Pounder_with_Bacon_&_Cheese
 + 1180 MenuItems_Quarter_Pounder_with_Bacon_Habanero_Ranch
 + 1100 MenuItems_Quarter_Pounder_with_Cheese + 85 MenuItems_Strawberry_Sundae
 <= 4495
Sugars_lower: 14 MenuItems_Bacon_Clubhouse_Burger + 7 MenuItems_Bacon_McDouble
 + 13 MenuItems_Baked_Apple_Pie + 9 MenuItems_Big_Mac
 + 7 MenuItems_Cheeseburger + 15 MenuItems_Chocolate_Chip_Cookie
 + 7 MenuItems_Daily_Double + 7 MenuItems_Double_Cheeseburger
 + 10 MenuItems_Double_Quarter_Pounder_with_Cheese + 6 MenuItems_Hamburger
 + 43 MenuItems_Hot_Caramel_Sundae + 48 MenuItems_Hot_Fudge_Sundae
 + 6 MenuItems_Jalapeño_Double + 6 MenuItems_Kids_Ice_Cream_Cone
 + 7 MenuItems_McDouble + 11 MenuItems_McRib
 + 13 MenuItems_Oatmeal_Raisin_Cookie
 + 4 MenuItems_Premium_Bacon_Ranch_Salad_(without_Chicken)
 + 5 MenuItems_Premium_Bacon_Ranch_Salad_with_Crispy_Chicken
 + 4 MenuItems_Premium_Bacon_Ranch_Salad_with_Grilled_Chicken
 + 6 MenuItems_Premium_Southwest_Salad_(without_Chicken)
 + 12 MenuItems_Premium_Southwest_Salad_with_Crispy_Chicken
 + 10 MenuItems_Premium_Southwest_Salad_with_Grilled_Chicken
 + 9 MenuItems_Quarter_Pounder_Deluxe
 + 12 MenuItems_Quarter_Pounder_with_Bacon_&_Cheese
 + 10 MenuItems_Quarter_Pounder_with_Bacon_Habanero_Ranch
 + 10 MenuItems_Quarter_Pounder_with_Cheese + 45 MenuItems_Strawberry_Sundae
 >= 40
Sugars_upper: 14 MenuItems_Bacon_Clubhouse_Burger + 7 MenuItems_Bacon_McDouble
 + 13 MenuItems_Baked_Apple_Pie + 9 MenuItems_Big_Mac
 + 7 MenuItems_Cheeseburger + 15 MenuItems_Chocolate_Chip_Cookie
 + 7 MenuItems_Daily_Double + 7 MenuItems_Double_Cheeseburger
 + 10 MenuItems_Double_Quarter_Pounder_with_Cheese + 6 MenuItems_Hamburger
 + 43 MenuItems_Hot_Caramel_Sundae + 48 MenuItems_Hot_Fudge_Sundae
 + 6 MenuItems_Jalapeño_Double + 6 MenuItems_Kids_Ice_Cream_Cone
 + 7 MenuItems_McDouble + 11 MenuItems_McRib
 + 13 MenuItems_Oatmeal_Raisin_Cookie
 + 4 MenuItems_Premium_Bacon_Ranch_Salad_(without_Chicken)
 + 5 MenuItems_Premium_Bacon_Ranch_Salad_with_Crispy_Chicken
 + 4 MenuItems_Premium_Bacon_Ranch_Salad_with_Grilled_Chicken
 + 6 MenuItems_Premium_Southwest_Salad_(without_Chicken)
 + 12 MenuItems_Premium_Southwest_Salad_with_Crispy_Chicken
 + 10 MenuItems_Premium_Southwest_Salad_with_Grilled_Chicken
 + 9 MenuItems_Quarter_Pounder_Deluxe
 + 12 MenuItems_Quarter_Pounder_with_Bacon_&_Cheese
 + 10 MenuItems_Quarter_Pounder_with_Bacon_Habanero_Ranch
 + 10 MenuItems_Quarter_Pounder_with_Cheese + 45 MenuItems_Strawberry_Sundae
 <= 60
Binaries
MenuItems_Bacon_Clubhouse_Burger
MenuItems_Bacon_McDouble
MenuItems_Baked_Apple_Pie
MenuItems_Big_Mac
MenuItems_Cheeseburger
MenuItems_Chocolate_Chip_Cookie
MenuItems_Daily_Double
MenuItems_Double_Cheeseburger
MenuItems_Double_Quarter_Pounder_with_Cheese
MenuItems_Hamburger
MenuItems_Hot_Caramel_Sundae
MenuItems_Hot_Fudge_Sundae
MenuItems_Jalapeño_Double
MenuItems_Kids_Ice_Cream_Cone
MenuItems_McDouble
MenuItems_McRib
MenuItems_Oatmeal_Raisin_Cookie
MenuItems_Premium_Bacon_Ranch_Salad_(without_Chicken)
MenuItems_Premium_Bacon_Ranch_Salad_with_Crispy_Chicken
MenuItems_Premium_Bacon_Ranch_Salad_with_Grilled_Chicken
MenuItems_Premium_Southwest_Salad_(without_Chicken)
MenuItems_Premium_Southwest_Salad_with_Crispy_Chicken
MenuItems_Premium_Southwest_Salad_with_Grilled_Chicken
MenuItems_Quarter_Pounder_Deluxe
MenuItems_Quarter_Pounder_with_Bacon_&_Cheese
MenuItems_Quarter_Pounder_with_Bacon_Habanero_Ranch
MenuItems_Quarter_Pounder_with_Cheese
MenuItems_Strawberry_Sundae
End
